52	0

0	1	2
4	1	3
6	1	4
7	1	5
1	1	6
4	2	7	8
5	1	9
8	1	9
2	1	10
3	2	11	12
8	2	13	14
10	2	13	14
10	2	15	16
10	2	15	16
7	3	17	18	20
9	3	17	18	20
2	3	19	21	22
9	3	19	21	22
5	2	23	24
10	2	23	24
6	2	23	24
6	2	23	24
6	2	26	27
2	1	25
5	2	26	27
3	3	29	30	31
2	1	28
1	3	29	30	31
6	2	33	34
1	1	32
10	1	35
7	2	33	34
2	1	35
10	1	37
5	1	36
2	1	37
9	1	38
2	3	39	40	42
2	1	41
8	1	43
6	1	43
10	2	44	45
2	2	44	45
10	2	46	47
10	2	46	47
9	3	48	49	50
7	3	48	49	50
8	1	52
10	1	52
3	1	51
7	1	52
0	0
